g3 4 1 0	# problem myampl
 19 22 1 0 11	# vars, constraints, objectives, ranges, eqns
 0 1	# nonlinear constraints, objectives
 0 0	# network constraints: nonlinear, linear
 0 6 0	# nonlinear vars in constraints, objectives, both
 0 0 0 1	# linear network variables; functions; arith, flags
 0 13 0 0 6	# discrete variables: binary, integer, nonlinear (b,c,o)
 67 16	# nonzeros in Jacobian, gradients
 0 0	# max name lengths: constraints, variables
 0 0 0 0 0	# common exprs: b,c,o,c1,o1
b
2 0
2 0
2 0
2 0
2 0
2 0
0 0 10
0 0 10
0 0 10
0 0 10
0 0 10
0 0 10
0 0 20
0 0 20
0 0 20
0 0 20
0 50 80
0 50 80
0 50 80
x19
0 5
1 4
2 3
3 7
4 5
5 6
6 10
7 0
8 0
9 10
10 10
11 0
12 12
13 8
14 0
15 10
16 68
17 71
18 71
r
4 10
4 10
4 10
4 0
4 0
4 0
4 0
4 -80
4 -80
4 -80
4 210
1 20
1 20
1 20
1 20
1 100
1 100
1 100
1 20
1 20
1 20
1 20
d22
0 0
1 0
2 0
3 0
4 0
5 0
6 0
7 0
8 0
9 0
10 0
11 0
12 0
13 0
14 0
15 0
16 0
17 0
18 0
19 0
20 0
21 0
C0
n0
C1
n0
C2
n0
C3
n0
C4
n0
C5
n0
C6
n0
C7
n0
C8
n0
C9
n0
C10
n0
C11
n0
C12
n0
C13
n0
C14
n0
C15
n0
C16
n0
C17
n0
C18
n0
C19
n0
C20
n0
C21
n0
O0 0
o54
6
o5
v0
n2
o5
v3
n2
o5
v1
n2
o5
v4
n2
o5
v2
n2
o5
v5
n2
k18
4
8
12
16
20
24
27
30
33
36
39
42
46
50
54
58
61
64
J0 2
6 1
7 1
J1 2
8 1
9 1
J2 2
10 1
11 1
J3 5
6 -1
8 -1
10 -1
12 1
13 1
J4 5
7 -1
9 -1
11 -1
14 1
15 1
J5 5
0 1
1 1
2 1
12 -1
14 -1
J6 5
3 1
4 1
5 1
13 -1
15 -1
J7 3
0 -1
3 -1
16 -1
J8 3
1 -1
4 -1
17 -1
J9 3
2 -1
5 -1
18 -1
J10 3
16 1
17 1
18 1
J11 3
6 1
8 1
10 1
J12 3
7 1
9 1
11 1
J13 2
12 1
14 1
J14 2
13 1
15 1
J15 3
0 1
3 1
16 1
J16 3
1 1
4 1
17 1
J17 3
2 1
5 1
18 1
J18 2
12 1
13 1
J19 2
14 1
15 1
J20 3
0 1
1 1
2 1
J21 3
3 1
4 1
5 1
G0 16
0 15
1 16
2 19
3 13
4 17
5 16
6 11
7 19
8 17
9 18
10 13
11 14
12 16
13 14
14 18
15 15
